# dummpy lammps script to test produced structures


units               real
atom_style          full
bond_style          harmonic
angle_style         harmonic
dihedral_style      harmonic
improper_style      cvff


neighbor            3 bin
neigh_modify        delay 0 every 1 check no page 50000000 one 5000000
pair_style          lj/cut/coul/long 10
kspace_style        pppm 0.0001


read_data           mix.data

group               poly id 1561:3480
delete_atoms        group poly

replicate           3 3 1

write_data          mmt_mod_331.data
