# dummpy lammps script to test produced structures


units               real
atom_style          full
bond_style          harmonic
angle_style         harmonic
dihedral_style      harmonic
improper_style      cvff


neighbor            3 bin
neigh_modify        delay 0 every 1 check no page 50000000 one 5000000
pair_style          lj/cut/coul/long 10
kspace_style        pppm 0.0001


read_data           new_mmt.data


thermo_style        custom step density pe evdwl ecoul ebond lx ly lz vol
thermo              100
fix                 1 all npt x 0 0 10000 y 0 0 10000 z 1000 1000 10000 temp 500 500 10000
dump                d0 all image 1 dump.*.jpg type type view 90 0


timestep            0.001
run                 1000

timestep            0.01
run                 1000

timestep            0.1
run                 1000

timestep            1
run                 1000

unfix 1
